NAME : rc_205.4.8377083.tour
COMMENT : Length = 8377083
COMMENT : Found by LKH [Keld Helsgaun] Tue May  2 05:51:53 2017
TYPE : TOUR
DIMENSION : 28
TOUR_SECTION
1
17
10
6
9
7
5
22
16
8
18
21
28
23
24
3
14
25
26
4
19
15
2
13
11
12
27
20
-1
EOF
